c User generated cnf file
p cnf 11 54
11 7 -6 0 
11 2 -5 0 
8 -1 11 0 
7 5 -4 0 
11 2 -9 0 
9 10 -1 0 
3 -5 10 0 
3 -5 3 0 
11 10 -6 0 
7 2 -5 0 
8 -8 6 0 
11 3 -3 0 
11 -11 4 0 
7 11 -7 0 
11 -2 6 0 
4 -9 11 0 
2 2 -6 0 
3 3 -6 0 
4 -6 7 0 
11 2 -2 0 
6 11 -3 0 
5 10 -6 0 
5 -8 9 0 
2 -10 8 0 
2 -6 3 0 
11 1 -4 0 
2 4 -6 0 
7 8 -6 0 
1 -7 8 0 
11 8 -3 0 
7 5 -3 0 
1 8 -1 0 
2 -6 1 0 
3 2 -2 0 
6 -2 5 0 
6 -3 8 0 
9 -6 3 0 
4 -8 1 0 
4 6 -11 0 
9 -6 11 0 
4 1 -1 0 
8 10 -3 0 
2 -5 5 0 
5 -8 5 0 
7 -7 5 0 
9 -11 3 0 
11 6 -9 0 
4 1 -2 0 
7 -11 9 0 
10 3 -9 0 
9 7 -3 0 
10 4 -11 0 
5 8 -11 0 
6 9 -7 0 
